p cnf 100 56
45 80 -79 0
-97 64 0
8 63 -39 0
-63 77 -16 0
-32 26 -36 0
92 -59 0
11 -69 63 0
-97 59 -83 0
-85 78 0
-50 97 6 0
-53 9 47 0
44 -53 -69 0
39 8 -75 0
20 -23 0
25 -21 67 0
21 -62 0
-16 -11 -46 0
-31 -12 0
75 62 0
-92 -80 16 -55 0
-34 -45 0
-63 -71 0
54 85 -6 0
67 83 -44 0
96 -78 -50 0
-44 -55 0
96 68 0
-25 36 -46 0
-64 54 16 0
-80 -62 -92 0
-59 -77 0
32 -20 0
46 -12 0
53 79 0
10 16 -96 0
-80 59 0
-86 71 67 0
80 12 0
94 14 62 0
-80 -94 -9 0
-8 -59 -14 0
23 -54 -25 0
-12 69 0
-16 -47 0
80 -68 10 0
96 47 0
-92 9 0
-20 -26 0
31 78 34 0
-10 -69 0
16 86 -96 0
55 -67 -9 0
-12 62 -6 0
50 71 67 0
-78 31 0
78 -47 -54 0
